NAME : ClusterId_198 
COMMENT : (Gillet and Johnson) 
TYPE : CVRP 
DIMENSION : 27 
EDGE_WEIGHT_TYPE : EUC_2D 
CAPACITY : 80 
NODE_COORD_SECTION 
198 5701 1684 
107 5210 -856 
123 5434 -330 
115 4402 -158 
122 7348 -246 
93 7364 70 
40 7832 174 
55 6820 224 
88 3623 492 
57 5900 322 
185 6396 452 
24 7331 579 
28 4899 745 
21 3637 959 
58 5383 791 
71 5790 925 
61 3874 1147 
56 4166 1161 
42 3846 1216 
97 5895 1599 
32 7359 1906 
188 5737 2194 
31 6227 2414 
59 5466 2600 
169 6359 2607 
10 8033 2787 
84 7465 2764 
DEMAND_SECTION 
198 550
107 21
123 20
115 27
122 34
93 24
40 21
55 13
88 12
57 21
185 37
24 16
28 13
21 24
58 4
71 24
61 17
56 20
42 13
97 22
32 32
188 12
31 34
59 25
169 16
10 21
84 21
DEPOT_SECTION 
198
 -1
EOF